\* NoName *\
Minimize
OBJ: A_0 + A_1 + 0.5 A_10 + 0.5 A_11 + 0.5 A_12 + 0.5 A_13 + 0.5 A_14
 + 0.5 A_15 + A_2 + 0.0833333333333 A_24 + 0.0833333333333 A_25
 + 0.0833333333333 A_26 + A_27 + A_28 + A_29 + A_3 + A_30 + A_31 + A_32 + A_33
 + A_34 + 0.5 A_35 + 0.5 A_36 + 0.5 A_37 + 0.5 A_38 + 0.5 A_39 + A_4
 + 0.5 A_40 + 0.5 A_41 + 0.5 A_42 + A_5 + 0.0833333333333 A_51
 + 0.0833333333333 A_52 + 0.0833333333333 A_53 + A_54 + A_55 + A_56 + A_57
 + 0.5 A_58 + 0.5 A_59 + A_6 + 0.5 A_60 + 0.5 A_61 + 0.0833333333333 A_66
 + A_67 + A_68 + A_69 + A_7 + A_70 + 0.5 A_71 + 0.5 A_72 + 0.5 A_73 + 0.5 A_74
 + 0.0833333333333 A_79 + 0.5 A_8 + 0.5 A_9 + D_0 + D_1 + 0.5 D_10 + 0.5 D_11
 + 0.5 D_12 + 0.5 D_13 + 0.5 D_14 + 0.5 D_15 + D_2 + 0.0833333333333 D_24
 + 0.0833333333333 D_25 + 0.0833333333333 D_26 + D_27 + D_28 + D_29 + D_3
 + D_30 + D_31 + D_32 + D_33 + D_34 + 0.5 D_35 + 0.5 D_36 + 0.5 D_37
 + 0.5 D_38 + 0.5 D_39 + D_4 + 0.5 D_40 + 0.5 D_41 + 0.5 D_42 + D_5
 + 0.0833333333333 D_51 + 0.0833333333333 D_52 + 0.0833333333333 D_53 + D_54
 + D_55 + D_56 + D_57 + 0.5 D_58 + 0.5 D_59 + D_6 + 0.5 D_60 + 0.5 D_61
 + 0.0833333333333 D_66 + D_67 + D_68 + D_69 + D_7 + D_70 + 0.5 D_71
 + 0.5 D_72 + 0.5 D_73 + 0.5 D_74 + 0.0833333333333 D_79 + 0.5 D_8 + 0.5 D_9
 + 1000 line:1_1 + 2000 line:1_2 + 1000 line:2_1 + 1000 line:2_2
Subject To
_C1: A_27 + A_31 + A_35 + A_39 - A_43 - A_47 - A_51 = 0
_C10: A_16 + A_46 + A_62 + A_76 = 0
_C11: A_18 + A_44 = 50
_C12: A_68 + A_70 + A_72 + A_74 - A_76 - A_78 + A_79 = 0
_C13: A_30 + A_34 + A_38 + A_42 - A_46 - A_50 + A_53 = 0
_C14: A_10 + A_14 - A_18 + A_2 - A_22 + A_25 - A_26 + A_6 = 0
_C15: - A_12 + A_20 - A_34 - A_4 - A_42 + A_50 - A_56 - A_60 + A_64 - A_70
 - A_74 + A_78 = 0
_C16: A_28 + A_32 + A_36 + A_40 - A_44 - A_48 + A_51 - A_52 = 0
_C17: - A_11 - A_27 - A_3 - A_35 - A_55 - A_59 - A_67 - A_71 = 0
_C18: A_19 + A_43 + A_63 + A_75 = 100
_C19: A_11 + A_15 - A_19 - A_23 + A_26 + A_3 + A_7 = 0
_C2: - A_1 - A_29 - A_37 - A_9 = 0
_C20: A_29 + A_33 + A_37 + A_41 - A_45 - A_49 + A_52 - A_53 = 0
_C21: A_17 + A_45 = 100
_C22: A_54 + A_56 + A_58 + A_60 - A_62 - A_64 - A_66 = 0
_C23: A_0 + A_12 - A_16 - A_20 - A_24 + A_4 + A_8 = 0
_C24: - A_15 + A_23 - A_31 - A_39 + A_47 - A_57 - A_61 + A_65 - A_69 - A_7
 - A_73 + A_77 = 0
_C25: D_27 + D_31 + D_35 + D_39 - D_43 - D_47 - D_51 = 0
_C26: - D_1 - D_29 - D_37 - D_9 = 0
_C27: D_55 + D_57 + D_59 + D_61 - D_63 - D_65 + D_66 = 0
_C28: - D_14 + D_22 - D_32 - D_40 + D_48 - D_6 = 0
_C29: - D_13 + D_21 - D_33 - D_41 + D_49 - D_5 = 0
_C3: A_55 + A_57 + A_59 + A_61 - A_63 - A_65 + A_66 = 0
_C30: - D_0 - D_30 - D_38 - D_54 - D_58 - D_68 - D_72 - D_8 = 0
_C31: D_1 + D_13 - D_17 - D_21 + D_24 - D_25 + D_5 + D_9 = 0
_C32: D_67 + D_69 + D_71 + D_73 - D_75 - D_77 - D_79 = 0
_C33: - D_10 - D_2 - D_28 - D_36 = 0
_C34: D_16 + D_46 + D_62 + D_76 = 100
_C35: D_18 + D_44 = 100
_C36: D_68 + D_70 + D_72 + D_74 - D_76 - D_78 + D_79 = 0
_C37: D_30 + D_34 + D_38 + D_42 - D_46 - D_50 + D_53 = 0
_C38: D_10 + D_14 - D_18 + D_2 - D_22 + D_25 - D_26 + D_6 = 0
_C39: - D_12 + D_20 - D_34 - D_4 - D_42 + D_50 - D_56 - D_60 + D_64 - D_70
 - D_74 + D_78 = 0
_C4: - A_14 + A_22 - A_32 - A_40 + A_48 - A_6 = 0
_C40: D_28 + D_32 + D_36 + D_40 - D_44 - D_48 + D_51 - D_52 = 0
_C41: - D_11 - D_27 - D_3 - D_35 - D_55 - D_59 - D_67 - D_71 = -250
_C42: D_19 + D_43 + D_63 + D_75 = 0
_C43: D_11 + D_15 - D_19 - D_23 + D_26 + D_3 + D_7 = 0
_C44: D_29 + D_33 + D_37 + D_41 - D_45 - D_49 + D_52 - D_53 = 0
_C45: D_17 + D_45 = 50
_C46: D_54 + D_56 + D_58 + D_60 - D_62 - D_64 - D_66 = 0
_C47: D_0 + D_12 - D_16 - D_20 - D_24 + D_4 + D_8 = 0
_C48: - D_15 + D_23 - D_31 - D_39 + D_47 - D_57 - D_61 + D_65 - D_69 - D_7
 - D_73 + D_77 = 0
_C49: line:1_1 + line:1_2 <= 1
_C5: - A_13 + A_21 - A_33 - A_41 + A_49 - A_5 = 0
_C50: line:2_1 + line:2_2 <= 1
_C51: line:1_1 + 2 line:1_2 + line:2_1 + line:2_2 <= 0
_C6: - A_0 - A_30 - A_38 - A_54 - A_58 - A_68 - A_72 - A_8 = -250
_C7: A_1 + A_13 - A_17 - A_21 + A_24 - A_25 + A_5 + A_9 = 0
_C8: A_67 + A_69 + A_71 + A_73 - A_75 - A_77 - A_79 = 0
_C9: - A_10 - A_2 - A_28 - A_36 = 0
cap1@0: A_0 + D_0 - 100 line:1_1 <= 0
cap1@1: A_1 + D_1 - 100 line:1_1 <= 0
cap1@10: A_10 + D_10 - 200 line:1_2 <= 0
cap1@11: A_11 + D_11 - 200 line:1_2 <= 0
cap1@12: A_12 + D_12 - 200 line:1_2 <= 0
cap1@13: A_13 + D_13 - 200 line:1_2 <= 0
cap1@14: A_14 + D_14 - 200 line:1_2 <= 0
cap1@15: A_15 + D_15 - 200 line:1_2 <= 0
cap1@2: A_2 + D_2 - 100 line:1_1 <= 0
cap1@24: A_24 + D_24 - 100 line:1_1 - 200 line:1_2 <= 0
cap1@25: A_25 + D_25 - 100 line:1_1 - 200 line:1_2 <= 0
cap1@26: A_26 + D_26 - 100 line:1_1 - 200 line:1_2 <= 0
cap1@27: A_27 + D_27 - 100 line:1_1 <= 0
cap1@28: A_28 + D_28 - 100 line:1_1 <= 0
cap1@29: A_29 + D_29 - 100 line:1_1 <= 0
cap1@3: A_3 + D_3 - 100 line:1_1 <= 0
cap1@30: A_30 + D_30 - 100 line:1_1 <= 0
cap1@31: A_31 + D_31 - 100 line:1_1 <= 0
cap1@32: A_32 + D_32 - 100 line:1_1 <= 0
cap1@33: A_33 + D_33 - 100 line:1_1 <= 0
cap1@34: A_34 + D_34 - 100 line:1_1 <= 0
cap1@35: A_35 + D_35 - 200 line:1_2 <= 0
cap1@36: A_36 + D_36 - 200 line:1_2 <= 0
cap1@37: A_37 + D_37 - 200 line:1_2 <= 0
cap1@38: A_38 + D_38 - 200 line:1_2 <= 0
cap1@39: A_39 + D_39 - 200 line:1_2 <= 0
cap1@4: A_4 + D_4 - 100 line:1_1 <= 0
cap1@40: A_40 + D_40 - 200 line:1_2 <= 0
cap1@41: A_41 + D_41 - 200 line:1_2 <= 0
cap1@42: A_42 + D_42 - 200 line:1_2 <= 0
cap1@5: A_5 + D_5 - 100 line:1_1 <= 0
cap1@51: A_51 + D_51 - 100 line:1_1 - 200 line:1_2 <= 0
cap1@52: A_52 + D_52 - 100 line:1_1 - 200 line:1_2 <= 0
cap1@53: A_53 + D_53 - 100 line:1_1 - 200 line:1_2 <= 0
cap1@6: A_6 + D_6 - 100 line:1_1 <= 0
cap1@7: A_7 + D_7 - 100 line:1_1 <= 0
cap1@8: A_8 + D_8 - 200 line:1_2 <= 0
cap1@9: A_9 + D_9 - 200 line:1_2 <= 0
cap2@54: A_54 + D_54 - 100 line:2_1 <= 0
cap2@55: A_55 + D_55 - 100 line:2_1 <= 0
cap2@56: A_56 + D_56 - 100 line:2_1 <= 0
cap2@57: A_57 + D_57 - 100 line:2_1 <= 0
cap2@58: A_58 + D_58 - 200 line:2_2 <= 0
cap2@59: A_59 + D_59 - 200 line:2_2 <= 0
cap2@60: A_60 + D_60 - 200 line:2_2 <= 0
cap2@61: A_61 + D_61 - 200 line:2_2 <= 0
cap2@66: A_66 + D_66 - 100 line:2_1 - 200 line:2_2 <= 0
cap2@67: A_67 + D_67 - 100 line:2_1 <= 0
cap2@68: A_68 + D_68 - 100 line:2_1 <= 0
cap2@69: A_69 + D_69 - 100 line:2_1 <= 0
cap2@70: A_70 + D_70 - 100 line:2_1 <= 0
cap2@71: A_71 + D_71 - 200 line:2_2 <= 0
cap2@72: A_72 + D_72 - 200 line:2_2 <= 0
cap2@73: A_73 + D_73 - 200 line:2_2 <= 0
cap2@74: A_74 + D_74 - 200 line:2_2 <= 0
cap2@79: A_79 + D_79 - 100 line:2_1 - 200 line:2_2 <= 0
Binaries
line:1_1
line:1_2
line:2_1
line:2_2
End
